(declare-fun Constructed_Argument_t () String)
(declare-fun CreateAsClass () Bool)
(declare-fun Constructed_Argument () Bool)
(declare-fun ExpandObjSwitcher () Real)
(assert (= Constructed_Argument_t "boolean"))
(assert CreateAsClass)
(assert (not Constructed_Argument))
(assert (not (= ExpandObjSwitcher 0.0)))
(assert (not (= ExpandObjSwitcher 1.0)))
(assert (not (= ExpandObjSwitcher 2.0)))
(check-sat)
